p wcnf 197 98 99 
1 -170 -186 0 
1 44 32 0 
1 159 -181 0 
1 191 -149 0 
1 -126 90 0 
1 -167 156 0 
1 95 -48 0 
1 158 -126 0 
1 -11 159 0 
1 138 128 0 
1 -136 120 0 
1 -103 -85 0 
1 -73 -79 0 
1 159 31 0 
1 -108 -146 0 
1 -139 -153 0 
1 63 73 0 
1 104 -110 0 
1 -50 88 0 
1 33 23 0 
1 -75 -57 0 
1 116 -4 0 
1 175 67 0 
1 -19 147 0 
1 -127 194 0 
1 -167 -38 0 
1 14 -29 0 
1 -122 -6 0 
1 95 -184 0 
1 -43 3 0 
1 -96 57 0 
1 124 172 0 
1 -150 38 0 
1 112 -88 0 
1 -176 -68 0 
1 -48 -182 0 
1 104 113 0 
1 39 185 0 
1 -127 113 0 
1 -57 132 0 
1 75 -72 0 
1 -78 -134 0 
1 8 -87 0 
1 24 -182 0 
1 9 -175 0 
1 -102 182 0 
1 19 -193 0 
1 -104 -145 0 
1 -142 128 0 
1 161 -87 0 
1 125 -144 0 
1 -20 191 0 
1 -142 164 0 
1 184 -100 0 
1 -168 40 0 
1 -65 -92 0 
1 -127 62 0 
1 2 -156 0 
1 -159 30 0 
1 -20 -177 0 
1 -191 -8 0 
1 -187 -96 0 
1 143 -87 0 
1 98 -46 0 
1 -50 65 0 
1 177 -20 0 
1 -13 -111 0 
1 -180 43 0 
1 -147 -13 0 
1 106 32 0 
1 133 85 0 
1 -176 193 0 
1 -35 -134 0 
1 17 -165 0 
1 97 129 0 
1 40 -9 0 
1 -91 111 0 
1 18 -39 0 
1 -79 91 0 
1 -80 195 0 
1 86 48 0 
1 157 123 0 
1 -14 -183 0 
1 -197 -86 0 
1 -95 177 0 
1 195 -1 0 
1 180 128 0 
1 180 143 0 
1 -170 -169 0 
1 -118 193 0 
1 -26 191 0 
1 134 -157 0 
1 -46 56 0 
1 76 -60 0 
1 -180 -167 0 
1 -118 153 0 
1 -182 169 0 
1 74 33 0 
